(set-logic QF_S)
(declare-fun A () String)
(assert (= (str.++  "c" A "baeacdbcebedaecaddcdedaccbebeeebacecdccabcbaccaeacebe")  (str.++  "c" A "baeacdbcebedaecaddcdedaccbebeeebacecdccabcbaccaeacebe") ))
(assert (= (str.++  "dbddedadddebaecaecb" A "cadcdccaedcb")  (str.++  "dbddedadddebaecaecbdeaeaeaeaecdbeeaacebedebbdeeccacadaabdecadcdccaedcb" "") ))
(assert (= (str.++  "aaecaacecedcecddeca" A "bedebeaeeddecabcadae")  (str.++  "aaecaacecedcecddecaaccdecbeecdbdbbbadadaabdeaedbddbedebeaeeddecabcadae" "") ))
(assert (= (str.++  "ceadbabaadeaeaadcbebbbcbcdaadbe" A "aadcbcddcabebcecdbabeecadbcdcaa")  (str.++  "ceadbabaadeaeaadcbebbbcbcdaadbeacdabbadaadcbcddcabebcecdbabeecadbcdcaa" "") ))
(assert (= (str.++  "aedab" A "cebedaedebdeabcbbbccacaadeadbaadebacaadbeaaaaedbaabbecdccaedcc")  (str.++  "aedabeadcebedaedebdeabcbbbccacaadeadbaadebacaadbeaaaaedbaabbecdccaedcc" "") ))
(assert (= (str.++  "dcccbaceaeaacbedebaccebbbeebdeddaeeb" A "baabddecbbdeadaeeecaabbceabceba")  (str.++  "dcccbaceaeaacbedebaccebbbeebdeddaeebeadbaabddecbbd" A "aeeecaabbceabceba") ))
(assert (= (str.++  "dcecdececcdcabadceacbedaadbeecededabbbaacacaedeadcaaebcdcabbdaccedccec" "")  (str.++  "dcecdececcdcabadceacbedaadbeecededabbbaacacaed" A "caaebcdcabbdaccedccec") ))
(assert (= (str.++  "cddacddaaecbdcbdeeddbbeeeeccebcdceaacdddcaddcecbedbc" A "eecbcedcdbeaded")  (str.++  "cddacddaaecbdcbdeeddbbeeeeccebcdceaacdddcaddcecbedbceadeecbcedcdb" A "ed") ))
(assert (= (str.++  "deeeabbdbaae" A A "ccccaececedbbeccaccaeccbcbccaaecebabbeaecebadaedceae")  (str.++  "deeeabbdbaaeeadeadccccaececedbbeccaccaeccbcbccaaecebabbeaecebadaedceae" "") ))
(assert (= (str.++  "ebbdcbaeaecdeccaeeaebabedcbecdbedeaccddaacabbecddb" A "ceeeeecabcebcddea")  (str.++  "ebbdcbaeaecdeccaeeaebabedcbecdbedeaccddaacabbecddbeadceeeeecabcebcddea" "") ))
(assert (= (str.++  "cadeedcbecaabdcdaddaddcccabeceadebbadebbddbaadddbdaeeebceabaaacccbcced" "")  (str.++  "cadeedcbecaabdcdaddaddcccabec" A "ebbadebbddbaadddbdaeeebceabaaacccbcced") ))
(assert (= (str.++  "ccbcbaaecceebecedebdaadbaacdaeebaacddeadcbdbbcddbceeadebeaacecaccdccad" "")  (str.++  "ccbcbaaecceebecedebdaadbaacdaeebaacdd" A "cbdbbcddbce" A "ebeaacecaccdccad") ))
(assert (= (str.++  "cabcbbbcbbededdcddddaecccceedcecdaaedceeabeeebedceeebac" A "ddacaccebead")  (str.++  "cabcbbbcbbededdcddddaecccceedcecdaaedceeabeeebedceeebaceadddacaccebead" "") ))
(assert (= (str.++  "cdbdcccaadcdecddacededccad" A "cedbaebeaabcebbedaecebbeaccbcdebbbbeadcdb")  (str.++  "cdbdcccaadcdecddacededccad" A "cedbaebeaabcebbedaecebbeaccbcdebbbb" A "cdb") ))
(assert (= (str.++  "eddddebbcbe" A "ebaedcdaeaaeacbdbaeaeeddaeaededbacaddbbbaaddacbaacddabda")  (str.++  "eddddebbcbe" A "ebaedcdaeaaeacbdbaeaeeddaeaededbacaddbbbaaddacbaacddabda") ))
(assert (= (str.++  "daaadeabbeeadddecabbbeaeaeeaabadbaebdcadaaeedbaadeaebadbaeababbcbbdeca" "")  (str.++  "daaadeabbe" A "ddecabbbeaeaeeaabadbaebdcadaaeedbaadeaebadbaeababbcbbdeca") ))
(assert (= (str.++  "bbbdeedcceeebdcceaebcbeeadbbaccadecebcdadaaeaccbccebdcabecabacbdcbddeb" "")  (str.++  "bbbdeedcceeebdcceaebcbe" A "bbaccadecebcdadaaeaccbccebdcabecabacbdcbddeb") ))
(assert (= (str.++  "bcaabdcceebbbdcbdeceebaceccebdeeecebababdcaabaeabcbceedbbddabcbecdeada" "")  (str.++  "bcaabdcceebbbdcbdeceebaceccebdeeecebababdcaabaeabcbceedbbddabcbecd" A "a") ))
(assert (= (str.++  "ddbedcabaacabadeabebcdeceacdababcacaadccadebdbddbeadbaadacdcaeebebedce" "")  (str.++  "ddbedcabaacabadeabebcdeceacdababcacaadccadebdbddb" A "baadacdcaeebebedce") ))
(assert (= (str.++  "dcacdaddb" A "beaddecbaebbeccebdbaeacbbdbdaaaddabddbeedcdbdeaaeacbbaaabb")  (str.++  "dcacdaddb" A "b" A "decbaebbeccebdbaeacbbdbdaaaddabddbeedcdbdeaaeacbbaaabb") ))
(assert (= (str.++  "eabedecbbdedeadddaaddcdabacbbdedaabecedddaeeaaabdeccbcbedeebb" A "bdbabb")  (str.++  "eabedecbbded" A "ddaaddcdabacbbdedaabecedddaeeaaabdeccbcbedeebbeadbdbabb") ))
(assert (= (str.++  "adebbacdbcbeceecbdcacd" A "ababadaddddeababddddeccccdecebdccbecabecbaeba")  (str.++  "adebbacdbcbeceecbdcacd" A "ababadaddddeababddddeccccdecebdccbecabecbaeba") ))
(assert (= (str.++  "cdadeceeecdddbdabdacbdcbcbeeacedcbbddddceeeebeeecdacdcddaba" A "aaaeaccb")  (str.++  "cdadeceeecdddbdabdacbdcbcbeeacedcbbddddceeeebeeecdacdcddaba" A "aaaeaccb") ))
(assert (= (str.++  "adedaceeacddeabaccebbabbbdbeadaacadcecaacdddddeebcaecbdceeaccdadbbebeb" "")  (str.++  "adedaceeacddeabaccebbabbbdb" A "aacadcecaacdddddeebcaecbdceeaccdadbbebeb") ))
(assert (= (str.++  "eeaeaabacbcccabbdaeedecaaababac" A "ebdbcdabdeacbadbdcdaddcddcdccdeddbed")  (str.++  "eeaeaabacbcccabbdaeedecaaababac" A "ebdbcdabdeacbadbdcdaddcddcdccdeddbed") ))
(assert (= (str.++  "ddacdedbacbbdcadedbeedcbbacadaeccdcbeabdccdddecdeeddab" A "ccebedabdadab")  (str.++  "ddacdedbacbbdcadedbeedcbbacadaeccdcbeabdccdddecdeeddab" A "ccebedabdadab") ))
(assert (= (str.++  "cedeaaeecebcebabbdaeaaebebdbcacbceecabbacabbcedcaeaeedeedaebdbebeeeadb" "")  (str.++  "cedeaaeecebcebabbdaeaaebebdbcacbceecabbacabbcedcaeaeedeedaebdbebee" A "b") ))
(assert (= (str.++  "ebdccebecdabbddbcddaabedebebeaa" A "edaaeecdedcebbaecaacaca" A "cdbaedbeba")  (str.++  "ebdccebecdabbddbcddaabedebebeaaeadedaaeecdedcebbaecaacaca" A "cdbaedbeba") ))
(assert (= (str.++  "beeacaaadbcbbeddebcdbeebabcdddaeabdecbcacecadabbdcbeeaedccebaa" A "aaacc")  (str.++  "beeacaaadbcbbeddebcdbeebabcdddaeabdecbcacecadabbdcbeeaedccebaaeadaaacc" "") ))
(assert (= (str.++  "beedcbebabdeaeadabacbbbbbadeeabaeadeaeaedcdeeebecddcaddccebddecdcacaec" "")  (str.++  "beedcbebabdea" A "abacbbbbbadeeabaeadeaeaedcdeeebecddcaddccebddecdcacaec") ))
(assert (= (str.++  "adaeaaaabbaadaedbabdcebaaaadedebbdcacdaaacbeebbeadcaecdddecbadacacbeca" "")  (str.++  "adaeaaaabbaadaedbabdcebaaaadedebbdcacdaaacbeebb" A "caecdddecbadacacbeca") ))
(assert (= (str.++  "bcdcbdacaadabdebbdabadccacbcaebcddcaebbeaacaaedabdddeadceadaedacccbbda" "")  (str.++  "bcdcbdacaadabdebbdabadccacbcaebcddcaebbeaacaaedabdddeadc" A "aedacccbbda") ))
(assert (= (str.++  "caddcddedbaebabaeeccadbaeceeddcacbdbbadaeeaeeadbebadbdbebecbcaebecbdad" "")  (str.++  "caddcddedbaebabaeeccadbaeceeddcacbdbbadaeeae" A "bebadbdbebecbcaebecbdad") ))
(assert (= (str.++  "cedaadebcebeccdaaceddc" A "eecaacdacbeedebeccceacceaacbededcadcbbaadebba")  (str.++  "cedaadebcebeccdaaceddc" A "eecaacdacbeedebeccceacceaacbededcadcbbaadebba") ))
(assert (= (str.++  "baedaedadeeecbabaebcbeddcbdaeccddcaedcddccbeddebddeeda" A "becceebacbbae")  (str.++  "baedaedadeeecbabaebcbeddcbdaeccddcaedcddccbeddebddeedaeadbecceebacbbae" "") ))
(assert (= (str.++  "caecbeecbdeaecbcbdddeaaebbedcacbdeeaadeddcadccbdadeeabc" A "aebdbaacecdd")  (str.++  "caecbeecbdeaecbcbdddeaaebbedcacbdeeaadeddcadccbdadeeabceadaebdbaacecdd" "") ))
(assert (= (str.++  "cdbacbadaccbebcbdbdcdbabcdaed" A "aebecebeeaacbbbbddaebdecdcdadddbccdbda")  (str.++  "cdbacbadaccbebcbdbdcdbabcdaedeadaebecebeeaacbbbbddaebdecdcdadddbccdbda" "") ))
(assert (= (str.++  "daedbeaacadcadebb" A "adcebabababddeacecebacdbabdabeeebcdbdebacbccceaade")  (str.++  "daedbeaacadcadebb" A "adcebabababddeacecebacdbabdabeeebcdbdebacbccceaade") ))
(assert (= (str.++  "eabdbeecdee" A "ccbddbccccbabcbcbccbccedadbcedddadabdbbcbbebbacaadcebede")  (str.++  "eabdbeecdee" A "ccbddbccccbabcbcbccbccedadbcedddadabdbbcbbebbacaadcebede") ))
(assert (= (str.++  "aeeabceaddeeddbaebbeaababbbcaaecccc" A "daceedacacacdcdccbeacceaebbeeeca")  (str.++  "aeeabceaddeeddbaebbeaababbbcaaecccc" A "daceedacacacdcdccbeacceaebbeeeca") ))
(assert (= (str.++  "dabbceabcccecebbbebbdedbaebeddbaacbeb" A "eceeadcdccceadcbddaeeccdabeebb")  (str.++  "dabbceabcccecebbbebbdedbaebeddbaacbeb" A "ece" A "cdccc" A "cbddaeeccdabeebb") ))
(assert (= (str.++  "cebacabecaae" A "aecddaedeeeaadedebedcebebaeacdabbbaeebceacdbdbbbacecbce")  (str.++  "cebacabecaaeeadaecddaedeeeaadedebedcebebaeacdabbbaeebceacdbdbbbacecbce" "") ))
(assert (= (str.++  "dadbccacdedabbaaccdaaeaaacdbeecbdccdb" A "cddeaebdabaababebeebddbcbedddc")  (str.++  "dadbccacdedabbaaccdaaeaaacdbeecbdccdbeadcddeaebdabaababebeebddbcbedddc" "") ))
(assert (= (str.++  "db" A "adebbeedcbdbecb" A "acbaaddbbdababeccdbeaebadc" A "ebbaddcbcdebcbdbec")  (str.++  "db" A "adebbeedcbdbecbeadacbaaddbbdababeccdbeaebadc" A "ebbaddcbcdebcbdbec") ))
(check-sat)
(get-model)
